! DLPNO-CCSD(T) aug-cc-pVTZ aug-cc-pVTZ/C TightPNO
%maxcore 2000
%pal
nprocs 10
end
# Title
*xyz 0 1
H     1.572529    -6.622418    -3.188107
O     1.361848    -6.841755    -4.125554
H     2.242524    -6.958400    -4.523981
H     2.614797    -5.782340    -1.531590
O     1.804052    -6.330909    -1.465409
H     1.059591    -5.667907    -1.370477
H    -0.291971    -7.657638    -3.339038
O    -1.020126    -7.725450    -2.701096
H    -0.644829    -8.116996    -1.899317
H     0.508747    -8.189942     0.584227
O    -0.403824    -8.406992     0.307107
H    -0.870653    -8.435209     1.174544
H     2.966184    -7.594562     1.008128
O     2.070666    -7.233873     0.985858
H     2.003148    -6.882716     0.052299
H     4.103329    -7.980646    -1.178268
O     4.608380    -7.517131    -0.483256
H     5.058626    -6.826256    -1.006553
H    -1.365729    -6.944841     0.056575
O    -1.968956    -6.179535    -0.085626
H    -2.559009    -6.471420    -0.795637
H     2.533947    -8.845812    -2.814647
O     3.497068    -8.925161    -2.804387
H     3.756768    -8.340672    -3.538052
*

