%nosave
%nproc=4
%mem=1gb
%chk=input
#P B97D3/aug-cc-pvtz

 Title

0 1
N     7.792350    -8.586354     0.118695
H     8.767593    -8.319668     0.018049
H     7.773061    -9.394263     0.733946
H     7.322073    -7.826418     0.607778

