! DLPNO-CCSD(T) aug-cc-pVTZ aug-cc-pVTZ/C TightPNO
%maxcore 2000
%pal
nprocs 10
end
# Title
*xyz 0 1
H     9.611042    -3.860093     2.083361
O     9.320933    -3.620697     1.171032
H     10.115892    -3.474568     0.638029
H     6.621822    -3.879811     0.271307
O     7.123984    -4.682844     0.033487
H     8.005896    -4.474873     0.430048
H     7.477795    -4.428871    -1.655320
O     7.626929    -4.460219    -2.633142
H     6.863763    -3.961878    -2.988769
H     3.986486    -8.065398    -1.087126
O     4.574151    -7.563752    -0.489457
H     5.022159    -6.963490    -1.122482
H     6.693837    -5.941377    -2.760720
O     5.938522    -6.576658    -2.774356
H     6.303544    -7.484208    -2.751443
H     6.274716    -5.751055     1.137336
O     5.776176    -6.326265     1.762539
H     5.362569    -6.980467     1.176471
H     5.941295    -9.026198    -1.381046
O     6.349980    -9.281403    -2.225668
H     5.619979    -9.700124    -2.702036
H     7.095911    -6.209169     3.218711
O     7.513650    -5.854231     4.024511
H     7.023769    -5.017874     4.173105
*

