H 52   C 1   O 25
  1.000000000
    8.819923     0.000000     0.000000
    0.000000     7.222763     0.000000
    0.000000     0.000000     30.000000
H   C   O
52    1    25
Cartesian
5.48291572      1.78893098     18.52969982  #H
5.54860236      6.42039605     17.97932923  #H
6.34853585      5.22998610     17.33407473  #H
4.74621407      1.32190374     17.26525331  #H
4.15061209      4.93631617     16.89016262  #H
2.53020424      1.61291195     16.84850090  #H
3.35666071      2.86479052     16.38384736  #H
3.37591977      4.93449816     15.51483703  #H
3.31749302      1.30936960     14.73882146  #H
3.33043006      6.47468989     13.85384485  #H
4.13146562      5.19030080     13.40958900  #H
2.52939020      1.30684138     13.37574230  #H
6.34000796      4.92827451     13.06955683  #H
4.74860660      1.57550868     13.02100562  #H
5.55479304      2.85623751     12.58258980  #H
5.56877386      4.93327326     11.69473782  #H
5.55687846      1.29979650     10.91364567  #H
5.56121859      6.50876308     10.04219776  #H
6.35975818      5.22898093     9.57919615  #H
4.77506546      1.27776152     9.53564648  #H
4.20423837      4.99657055     9.21069656  #H
2.61671660      1.52625575     9.15424647  #H
3.41333963      2.75728817     8.64713170  #H
3.41982499      5.12582276     7.87807303  #H
5.42609874      4.06855575     19.04884781  #H
3.20226745      3.57389566     19.40155895  #H
3.95313999      4.11533898     20.91254954  #H
3.74855445      2.38767680     20.60201955  #H
1.04698570      1.47081404     18.60873418  #H
1.08967729      6.37796965     17.80841522  #H
1.89262985      5.15791867     17.28287910  #H
0.25940749      1.37661954     17.27406596  #H
8.54119174      4.90732565     16.94609101  #H
6.91741041      1.60137244     16.93088230  #H
7.71446945      2.88296047     16.46063796  #H
7.74440855      4.93292026     15.57648639  #H
7.71478563      1.32188588     14.80214767  #H
7.73094842      6.47561243     13.90780959  #H
8.52889136      5.19486136     13.45319171  #H
6.94159507      1.31356465     13.42786419  #H
1.92047651      4.92314657     13.06768798  #H
0.32322844      1.57813615     13.05357500  #H
1.11595709      2.85954607     12.59321947  #H
1.12799178      4.93228076     11.70874811  #H
1.11669916      1.30006320     10.92000716  #H
1.13468681      6.50723826     10.05256412  #H
1.94019351      5.22878308     9.59981955  #H
0.35743325      1.27718751     9.52935833  #H
8.61383922      4.99532483     9.19905494  #H
7.03124686      1.52734400     9.13115247  #H
7.82956217      2.75534537     8.61968357  #H
7.84185696      5.13336257     7.85961915  #H
3.97496385      3.34522265     20.13869995  #C
5.52532580      5.45315991     17.83788379  #O
5.53002561      1.10137676     17.82382489  #O
3.35300265      4.57320236     16.43512868  #O
3.34537319      1.87287298     16.36450168  #O
3.31355911      5.48479870     13.88270570  #O
3.34984560      0.96312822     13.81310458  #O
5.52926354      4.58204238     12.61609910  #O
5.57584568      1.86799341     12.56328072  #O
5.54164805      5.50887341     10.04937858  #O
5.59266471      0.93718229     9.99654392  #O
3.38776289      4.67838614     8.72989120  #O
3.44026624      1.78530876     8.68381363  #O
5.26628121      3.24124971     19.54807917  #O
1.07782045      5.40422369     17.77336395  #O
1.08434349      1.05725042     17.74010732  #O
7.70721636      4.58590763     16.50031735  #O
7.73415692      1.88951794     16.44660441  #O
7.71014063      5.48621667     13.92572140  #O
7.75491591      0.97143834     13.87960360  #O
1.09752075      4.58413022     12.63151730  #O
1.13454376      1.87119201     12.56945420  #O
1.11619938      5.50734704     10.06021698  #O
1.16673955      0.93594873     10.00441839  #O
7.80359515      4.67808365     8.70701616  #O
7.85465682      1.78345860     8.65860135  #O
     
     
     
