H 24   O 12
  1.000000000
    4.409961     0.000000     0.000000
    0.000000     7.222763     0.000000
    0.000000     0.000000     30.000000
H   O
24    12
Cartesian
1.00967711      3.68766228     18.59929653  #H
1.01466554      1.31524184     17.83240150  #H
1.81099178      0.08524277     17.32246917  #H
0.23110272      3.55497938     17.26323654  #H
4.06866511      7.05962143     16.93160455  #H
2.49044707      3.78585672     16.87780823  #H
3.29056274      5.06561565     16.41931096  #H
3.29620630      7.08055287     15.54809603  #H
3.29622422      3.48827855     14.76551751  #H
3.29826674      1.41662038     13.87796609  #H
4.09332992      0.13386362     13.42694808  #H
2.51489278      3.48320256     13.39831219  #H
1.89506865      7.09458415     13.06145639  #H
0.31663151      3.74524521     13.03282050  #H
1.11169469      5.02800197     12.58180249  #H
1.11373721      7.09966014     11.69425107  #H
1.11375513      3.46917128     10.91167255  #H
1.11939869      1.45423406     10.04045762  #H
1.91951436      0.17447513     9.58196035  #H
0.34129632      3.44823984     9.52816403  #H
4.17885871      7.16636097     9.19653204  #H
2.59896965      3.69662436     9.13729941  #H
3.39529589      4.92662343     8.62736708  #H
3.40028432      0.07628069     7.86047205  #H
0.98727069      0.34336285     17.79321777  #O
1.04434424      3.23652689     17.74953438  #O
3.25525295      6.71733826     16.46445768  #O
3.31152456      4.06585149     16.41302447  #O
3.27416242      0.42793414     13.89702780  #O
3.33106152      3.13843208     13.84364918  #O
1.07889991      6.74981367     12.61611940  #O
1.13579901      4.03931573     12.56274078  #O
1.09843687      0.45446990     10.04674411  #O
1.15470848      3.10595667     9.99531090  #O
3.36561719      6.84790848     8.71023420  #O
3.42269074      3.95474444     8.66655081  #O
     
     
     
