H 50   O 25
  1.000000000
    8.819923     0.000000     0.000000
    0.000000     7.222763     0.000000
    0.000000     0.000000     30.000000
H   O
50    25
Cartesian
7.68462157      1.19092743     18.56997688  #H
3.31182957      1.44041512     18.54165866  #H
7.63533025      6.06791789     17.80691636  #H
3.29174207      6.08859044     17.97456165  #H
8.42304013      4.82764513     17.31320166  #H
4.08037022      4.90337524     17.30802606  #H
6.85752204      1.07692516     17.25739966  #H
2.51963147      1.01596298     17.28688056  #H
1.86890566      4.61214401     16.91436684  #H
6.26556303      4.60514836     16.91973366  #H
0.31482125      1.28138102     16.83656618  #H
4.69118288      1.28507122     16.91416319  #H
1.12318313      2.54886707     16.39232793  #H
5.46914005      2.57633953     16.43900761  #H
1.10394228      4.61688815     15.53669979  #H
5.47972610      4.62480189     15.54282433  #H
1.09983862      1.00004381     14.73995661  #H
5.48451522      1.01285379     14.78603397  #H
1.08799305      6.16186674     13.86590237  #H
5.48990026      6.17012875     13.88410232  #H
1.88100336      4.87504782     13.42143096  #H
6.28522067      4.88587864     13.43292673  #H
0.30364318      0.99830134     13.37998295  #H
4.70994064      1.00891945     13.41246223  #H
8.49843195      4.61647451     13.06830148  #H
4.08873739      4.62039868     13.05647677  #H
6.91673660      1.26881353     13.04482846  #H
2.51730859      1.26266077     13.01508109  #H
7.70896282      2.55085172     12.58816623  #H
3.31374370      2.54799601     12.57351597  #H
7.71442637      4.62385669     11.70315159  #H
3.30910934      4.62343271     11.68838796  #H
7.70886384      0.99204405     10.91580757  #H
3.31803615      0.99100434     10.90467230  #H
7.71921527      6.19889437     10.04794599  #H
3.31499797      6.19972892     10.03539117  #H
8.52025562      4.91941865     9.59051125  #H
4.11333775      4.91850335     9.57779146  #H
6.94380171      0.96959417     9.52795353  #H
2.53751578      0.96998963     9.52563308  #H
1.95990422      4.68850593     9.19794468  #H
6.37210568      4.68773602     9.19987200  #H
0.38095881      1.21762855     9.14441593  #H
4.79555654      1.21737947     9.12798825  #H
1.17508597      2.44851412     8.63336766  #H
5.59281091      2.44777132     8.62099286  #H
1.17607397      4.81926193     7.86486873  #H
5.59850975      4.82376703     7.86136489  #H
3.24917798      3.76809452     19.06302199  #H
3.99977003      3.05827377     20.19683085  #H
7.59849654      5.09496160     17.77495473  #O
3.26963734      5.12107791     17.83492627  #O
7.68105644      0.74541973     17.71658146  #O
3.31326800      0.77061008     17.82262490  #O
1.07263120      4.25285716     16.45507800  #O
5.43766065      4.27674234     16.46646716  #O
1.13526763      1.55633995     16.36925126  #O
5.50506811      1.58298226     16.43216757  #O
1.06553298      5.17225502     13.89661668  #O
5.46407931      5.18075559     13.89945464  #O
1.12384696      0.65117758     13.81485426  #O
5.52321995      0.66441234     13.86291511  #O
7.67970903      4.27517948     12.62561568  #O
3.27491969      4.27241274     12.61004364  #O
7.73096114      1.56250484     12.56609403  #O
3.34102276      1.55977014     12.55374326  #O
7.69904209      5.19905774     10.05528666  #O
3.29275962      5.19984147     10.04272222  #O
7.75450058      0.62764186     10.00009181  #O
3.35364248      0.62763510     9.98785436  #O
1.14451426      4.36971592     8.71558185  #O
5.56117900      4.36979191     8.70951108  #O
1.20349561      1.47666836     8.67215244  #O
5.62009012      1.47587476     8.65870101  #O
3.26038573      2.94158405     19.59322537  #O
     
     
     
