H 46   O 23
  1.000000000
    8.819923     0.000000     0.000000
    0.000000     7.222763     0.000000
    0.000000     0.000000     40.000000
H   O
46    23
Cartesian
7.80528644      3.54702557     23.00419793  #H
7.68216266      1.23785899     22.13986712  #H
8.39803957      7.16641570     21.65971135  #H
6.95429845      3.56070074     21.72242101  #H
6.16506435      7.10423007     21.31790856  #H
4.63758899      3.90466093     21.45844182  #H
5.36909816      5.17974294     20.94012975  #H
5.41298785      7.08718240     19.93358065  #H
5.43789929      3.49073987     19.28706085  #H
5.48800130      1.37782574     18.30801781  #H
6.27804330      0.09525494     17.82660371  #H
4.70524103      3.45308068     17.89540817  #H
8.48423062      7.01179968     17.47758306  #H
6.93792776      3.68521132     17.56427704  #H
7.72183426      4.95030550     17.06734879  #H
7.69877538      7.00871029     16.11360350  #H
7.72433071      3.38469845     15.42389115  #H
7.72679844      1.37996254     14.49617446  #H
8.52088033      0.10598689     14.00703958  #H
6.96213453      3.38309113     14.03147645  #H
6.37618307      7.10009945     13.61354217  #H
4.81756630      3.62177699     13.58520105  #H
5.61660155      4.85118872     13.07662981  #H
5.61022329      7.21673555     12.26823788  #H
2.87472964      1.81920929     21.32160778  #H
3.88103556      0.62601696     21.45720508  #H
1.81314373      7.09575860     21.27553920  #H
0.62293988      3.54900608     21.30000999  #H
1.43383548      4.77846192     20.87100158  #H
1.07151933      6.86578883     19.94038175  #H
1.23286885      3.33872342     19.22569319  #H
1.08981208      1.29195948     18.29820280  #H
1.86388762      0.01421501     17.81205839  #H
0.35421007      3.39104556     17.90400000  #H
4.07692991      7.03197828     17.44330778  #H
2.54353680      3.64801170     17.45660575  #H
3.32182519      4.94187294     16.99518736  #H
3.30091391      7.01104679     16.07616847  #H
3.33542884      3.38058315     15.34397340  #H
3.31878907      1.37655134     14.44523211  #H
4.11495714      0.09765778     13.97579369  #H
2.54749329      3.37374414     13.96964015  #H
1.95702106      7.09191956     13.60175773  #H
0.38719662      3.62321134     13.62728471  #H
1.16847146      4.84775915     13.08127303  #H
1.16470627      7.20932654     12.27198760  #H
7.58039041      0.27146182     22.09389371  #O
7.76590025      3.16922410     22.11930937  #O
5.31256917      6.82191874     20.87945213  #O
5.42540444      4.17572575     20.97341908  #O
5.44950638      0.39198938     18.28042330  #O
5.50354636      3.11716860     18.38214904  #O
7.65906245      6.67340818     17.04055327  #O
7.75499028      3.96183870     17.08501413  #O
7.69901305      0.38094932     14.47332316  #O
7.76961266      3.03400759     14.50327562  #O
5.56889431      6.77402257     13.12202446  #O
5.65172387      3.88055327     13.13344969  #O
3.04637035      1.00419504     21.80917117  #O
1.10144129      6.54227926     20.87009578  #O
1.45704596      3.79219044     20.85389379  #O
1.04911220      0.30342958     18.29187440  #O
1.18475432      3.01565351     18.28720977  #O
3.27190225      6.66325086     16.99931912  #O
3.36367668      3.95362903     16.99194068  #O
3.29211908      0.37676091     14.43820380  #O
3.36634651      3.02681948     14.42329924  #O
1.13762715      6.76981828     13.12799971  #O
1.19969789      3.87674631     13.13538046  #O
     
     
     
