! DLPNO-CCSD(T) aug-cc-pVTZ aug-cc-pVTZ/C TightPNO
%maxcore 2000
%pal
nprocs 10
end
# Title
*xyz 0 1
H     6.008005    -1.289275     1.352520
O     5.486910    -0.446638     1.297448
H     6.207225     0.208036     1.340878
H     7.124154    -2.968956     4.722455
O     6.395258    -3.419782     4.219362
H     5.576128    -3.067087     4.656598
H     8.178579     1.490798     1.435951
O     8.065567     0.566376     1.732001
H     8.501639    -0.003334     1.058733
H     8.213713    -1.189105    -0.789994
O     9.003734    -0.838678    -0.316161
H     9.707408    -1.503945    -0.447109
H     9.646920    -4.021544     2.140957
O     9.349260    -3.821971     1.214191
H     10.128422    -3.619729     0.678982
H     6.742718     0.162340     4.309974
O     7.708612     0.375589     4.291478
H     7.941586     0.342296     3.320335
H     8.049365    -1.948670     6.255223
O     8.420160    -2.124219     5.367633
H     8.296271    -1.253510     4.924772
H     8.146042     0.555454     7.432329
O     8.486889     1.240149     6.838429
H     8.294276     0.876881     5.948986
H     6.766748    -2.829020     2.686968
O     6.916559    -2.614974     1.733755
H     7.867751    -2.744074     1.563106
H     10.428608    -2.784585    -1.872491
O     10.903796    -2.760628    -0.997872
H     11.769098    -2.399592    -1.219333
H     9.076703    -5.080064     3.912708
O     9.770468    -4.396276     3.789994
H     9.522410    -3.697284     4.416645
H     9.549168     0.812485    -0.727290
O     9.626519     1.788827    -0.781980
H     9.930102     1.937157    -1.689565
*

