#------------------------------------------------------
# After the Orca calculation you will get two inter-
# action energies at the end of the output file. The
# difference is the negative BSSE.
#
# The script will set the orbital guess PModel for 
# jobs 2-5 since Orca will try to use the .gbw-files of
# the earlier calculations which does not work for jobs
# 2 and 3 and does not help for jobs 4 and 5.
#------------------------------------------------------
#
#-------------------------
#     First the dimer
#-------------------------

%id "dimer"
! DLPNO-CCSD(T) aug-cc-pVTZ aug-cc-pVTZ/C TightPNO
%maxcore 2000
%pal
nprocs 28
end

* xyz 0 1
H    -2.407565    -3.607078     1.921457 
O    -2.484443    -4.523313     2.273597 
H    -1.551625    -4.840246     2.333444 
H     0.737381    -5.026662     1.947491 
O     0.187293    -5.133914     2.750237 
H     0.395529    -6.047162     3.024563 
H    -2.017578    -8.192353     0.427514 
O    -1.630159    -7.720139     1.193529 
H    -2.317993    -7.717041     1.895299 
H    -5.429419    -5.093063     1.801772 
O    -4.747175    -5.752587     1.506469 
H    -3.883659    -5.285360     1.627844 
H    -5.620404    -8.152245    -0.814749 
O    -4.949427    -8.218343    -0.097822 
H    -4.915398    -7.337371     0.304772 
H    -2.030060    -3.007381     4.626878 
O    -2.892315    -3.470209     4.729249 
H    -2.890103    -4.042532     3.932998 
H    -0.007106    -8.093626     2.452285 
O     0.785007    -7.885424     2.970947 
H     1.522449    -8.136330     2.380113 
H    -3.658605    -3.623263     7.863257 
O    -3.698968    -2.906001     7.231085 
H    -3.429221    -3.267822     6.357627 
C    -3.375202    -7.341924     4.456913 
O    -3.593181    -7.695302     3.094700 
H    -2.717725    -8.090539     4.889948 
H    -4.205413    -7.044456     2.694995 
H    -2.902424    -6.363710     4.557641 
H    -4.311388    -7.341429     5.017655 
*

#--------------------------
#   Now the fragments at
#      dimer-geometry 
#-------------------------

$new_job
%id "fragment"
%scf guess PModel end
! DLPNO-CCSD(T) aug-cc-pVTZ aug-cc-pVTZ/C TightPNO
%maxcore 2000
%pal
nprocs 28
end

* xyz 0 1
H    -2.407565    -3.607078     1.921457 
O    -2.484443    -4.523313     2.273597 
H    -1.551625    -4.840246     2.333444 
H     0.737381    -5.026662     1.947491 
O     0.187293    -5.133914     2.750237 
H     0.395529    -6.047162     3.024563 
H    -2.017578    -8.192353     0.427514 
O    -1.630159    -7.720139     1.193529 
H    -2.317993    -7.717041     1.895299 
H    -5.429419    -5.093063     1.801772 
O    -4.747175    -5.752587     1.506469 
H    -3.883659    -5.285360     1.627844 
H    -5.620404    -8.152245    -0.814749 
O    -4.949427    -8.218343    -0.097822 
H    -4.915398    -7.337371     0.304772 
H    -2.030060    -3.007381     4.626878 
O    -2.892315    -3.470209     4.729249 
H    -2.890103    -4.042532     3.932998 
H    -0.007106    -8.093626     2.452285 
O     0.785007    -7.885424     2.970947 
H     1.522449    -8.136330     2.380113 
H    -3.658605    -3.623263     7.863257 
O    -3.698968    -2.906001     7.231085 
H    -3.429221    -3.267822     6.357627 
*

$new_job
%id "fragment"
%scf guess PModel end
! DLPNO-CCSD(T) aug-cc-pVTZ aug-cc-pVTZ/C TightPNO
%maxcore 2000
%pal
nprocs 6
end

* xyz 0 1
C    -3.375202    -7.341924     4.456913 
O    -3.593181    -7.695302     3.094700 
H    -2.717725    -8.090539     4.889948 
H    -4.205413    -7.044456     2.694995 
H    -2.902424    -6.363710     4.557641 
H    -4.311388    -7.341429     5.017655 
*

#--------------------------
#   Now the fragments at
#   dimer-geometry with  
#     the dimer-basis
#-------------------------

$new_job
%id "ghost"
%scf guess PModel end
! DLPNO-CCSD(T) aug-cc-pVTZ aug-cc-pVTZ/C TightPNO
%maxcore 2000
%pal
nprocs 28
end

* xyz 0 1
H         -2.407565    -3.607078     1.921457 
O         -2.484443    -4.523313     2.273597 
H         -1.551625    -4.840246     2.333444 
H          0.737381    -5.026662     1.947491 
O          0.187293    -5.133914     2.750237 
H          0.395529    -6.047162     3.024563 
H         -2.017578    -8.192353     0.427514 
O         -1.630159    -7.720139     1.193529 
H         -2.317993    -7.717041     1.895299 
H         -5.429419    -5.093063     1.801772 
O         -4.747175    -5.752587     1.506469 
H         -3.883659    -5.285360     1.627844 
H         -5.620404    -8.152245    -0.814749 
O         -4.949427    -8.218343    -0.097822 
H         -4.915398    -7.337371     0.304772 
H         -2.030060    -3.007381     4.626878 
O         -2.892315    -3.470209     4.729249 
H         -2.890103    -4.042532     3.932998 
H         -0.007106    -8.093626     2.452285 
O          0.785007    -7.885424     2.970947 
H          1.522449    -8.136330     2.380113 
H         -3.658605    -3.623263     7.863257 
O         -3.698968    -2.906001     7.231085 
H         -3.429221    -3.267822     6.357627 
C :       -3.375202    -7.341924     4.456913 
O :       -3.593181    -7.695302     3.094700 
H :       -2.717725    -8.090539     4.889948 
H :       -4.205413    -7.044456     2.694995 
H :       -2.902424    -6.363710     4.557641 
H :       -4.311388    -7.341429     5.017655 
*

$new_job
%id "ghost"
%scf guess PModel end
! DLPNO-CCSD(T) aug-cc-pVTZ aug-cc-pVTZ/C TightPNO
%maxcore 2000
%pal
nprocs 6
end

* xyz 0 1
H :       -2.407565    -3.607078     1.921457 
O :       -2.484443    -4.523313     2.273597 
H :       -1.551625    -4.840246     2.333444 
H :        0.737381    -5.026662     1.947491 
O :        0.187293    -5.133914     2.750237 
H :        0.395529    -6.047162     3.024563 
H :       -2.017578    -8.192353     0.427514 
O :       -1.630159    -7.720139     1.193529 
H :       -2.317993    -7.717041     1.895299 
H :       -5.429419    -5.093063     1.801772 
O :       -4.747175    -5.752587     1.506469 
H :       -3.883659    -5.285360     1.627844 
H :       -5.620404    -8.152245    -0.814749 
O :       -4.949427    -8.218343    -0.097822 
H :       -4.915398    -7.337371     0.304772 
H :       -2.030060    -3.007381     4.626878 
O :       -2.892315    -3.470209     4.729249 
H :       -2.890103    -4.042532     3.932998 
H :       -0.007106    -8.093626     2.452285 
O :        0.785007    -7.885424     2.970947 
H :        1.522449    -8.136330     2.380113 
H :       -3.658605    -3.623263     7.863257 
O :       -3.698968    -2.906001     7.231085 
H :       -3.429221    -3.267822     6.357627 
C         -3.375202    -7.341924     4.456913 
O         -3.593181    -7.695302     3.094700 
H         -2.717725    -8.090539     4.889948 
H         -4.205413    -7.044456     2.694995 
H         -2.902424    -6.363710     4.557641 
H         -4.311388    -7.341429     5.017655 
*

