#------------------------------------------------------
# After the Orca calculation you will get two inter-
# action energies at the end of the output file. The
# difference is the negative BSSE.
#
# The script will set the orbital guess PModel for 
# jobs 2-5 since Orca will try to use the .gbw-files of
# the earlier calculations which does not work for jobs
# 2 and 3 and does not help for jobs 4 and 5.
#------------------------------------------------------
#
#-------------------------
#     First the dimer
#-------------------------

%id "dimer"
! DLPNO-CCSD(T) aug-cc-pVTZ aug-cc-pVTZ/C TightPNO
%maxcore 2000
%pal
nprocs 24
end

* xyz 0 1
H    -3.443235     6.434413    -0.504000 
O    -3.271685     7.084807    -1.230295 
H    -3.161553     7.963534    -0.826568 
H    -3.164809     4.919460     1.110722 
O    -3.919989     5.319764     0.633197 
H    -4.366159     5.812195     1.362342 
H    -0.682080     6.306713     5.076776 
O    -1.295406     6.880480     5.606853 
H    -1.275444     7.764121     5.165067 
H    -1.795517     9.694788    -0.741253 
O    -2.614221     9.521136    -0.208755 
H    -3.175160     10.293579    -0.322272 
H    -2.306709     8.721835     1.321014 
O    -2.167145     8.083444     2.050273 
H    -1.370696     7.570353     1.808332 
H    -4.391280     6.394408     3.573568 
O    -4.543337     6.835331     2.712800 
H    -3.679109     7.260003     2.521458 
H    -1.772171     8.975016     3.511879 
O    -1.523132     9.283759     4.411862 
H    -2.373779     9.382569     4.871546 
H    -3.782438     5.305952     5.851479 
O    -3.790202     6.088514     5.266701 
H    -2.829598     6.345314     5.302956 
H    -4.178585     9.037329     6.694452 
O    -4.085999     8.842011     5.757539 
H    -4.148955     7.864689     5.702885 
O    -5.148706     9.668114     2.922701 
H    -4.961285     9.791795     3.860486 
H    -5.216163     8.702068     2.854049 
*

#--------------------------
#   Now the fragments at
#      dimer-geometry 
#-------------------------

$new_job
%id "fragment"
%scf guess PModel end
! DLPNO-CCSD(T) aug-cc-pVTZ aug-cc-pVTZ/C TightPNO
%maxcore 2000
%pal
nprocs 24
end

* xyz 0 1
H    -3.443235     6.434413    -0.504000 
O    -3.271685     7.084807    -1.230295 
H    -3.161553     7.963534    -0.826568 
H    -3.164809     4.919460     1.110722 
O    -3.919989     5.319764     0.633197 
H    -4.366159     5.812195     1.362342 
H    -0.682080     6.306713     5.076776 
O    -1.295406     6.880480     5.606853 
H    -1.275444     7.764121     5.165067 
H    -1.795517     9.694788    -0.741253 
O    -2.614221     9.521136    -0.208755 
H    -3.175160     10.293579    -0.322272 
H    -2.306709     8.721835     1.321014 
O    -2.167145     8.083444     2.050273 
H    -1.370696     7.570353     1.808332 
H    -4.391280     6.394408     3.573568 
O    -4.543337     6.835331     2.712800 
H    -3.679109     7.260003     2.521458 
H    -1.772171     8.975016     3.511879 
O    -1.523132     9.283759     4.411862 
H    -2.373779     9.382569     4.871546 
H    -3.782438     5.305952     5.851479 
O    -3.790202     6.088514     5.266701 
H    -2.829598     6.345314     5.302956 
H    -4.178585     9.037329     6.694452 
O    -4.085999     8.842011     5.757539 
H    -4.148955     7.864689     5.702885 
*

$new_job
%id "fragment"
%scf guess PModel end
! DLPNO-CCSD(T) aug-cc-pVTZ aug-cc-pVTZ/C TightPNO
%maxcore 2000
%pal
nprocs 6
end

* xyz 0 1
O    -5.148706     9.668114     2.922701 
H    -4.961285     9.791795     3.860486 
H    -5.216163     8.702068     2.854049 
*

#--------------------------
#   Now the fragments at
#   dimer-geometry with  
#     the dimer-basis
#-------------------------

$new_job
%id "ghost"
%scf guess PModel end
! DLPNO-CCSD(T) aug-cc-pVTZ aug-cc-pVTZ/C TightPNO
%maxcore 2000
%pal
nprocs 24
end

* xyz 0 1
H         -3.443235     6.434413    -0.504000 
O         -3.271685     7.084807    -1.230295 
H         -3.161553     7.963534    -0.826568 
H         -3.164809     4.919460     1.110722 
O         -3.919989     5.319764     0.633197 
H         -4.366159     5.812195     1.362342 
H         -0.682080     6.306713     5.076776 
O         -1.295406     6.880480     5.606853 
H         -1.275444     7.764121     5.165067 
H         -1.795517     9.694788    -0.741253 
O         -2.614221     9.521136    -0.208755 
H         -3.175160     10.293579    -0.322272 
H         -2.306709     8.721835     1.321014 
O         -2.167145     8.083444     2.050273 
H         -1.370696     7.570353     1.808332 
H         -4.391280     6.394408     3.573568 
O         -4.543337     6.835331     2.712800 
H         -3.679109     7.260003     2.521458 
H         -1.772171     8.975016     3.511879 
O         -1.523132     9.283759     4.411862 
H         -2.373779     9.382569     4.871546 
H         -3.782438     5.305952     5.851479 
O         -3.790202     6.088514     5.266701 
H         -2.829598     6.345314     5.302956 
H         -4.178585     9.037329     6.694452 
O         -4.085999     8.842011     5.757539 
H         -4.148955     7.864689     5.702885 
O :       -5.148706     9.668114     2.922701 
H :       -4.961285     9.791795     3.860486 
H :       -5.216163     8.702068     2.854049 
*

$new_job
%id "ghost"
%scf guess PModel end
! DLPNO-CCSD(T) aug-cc-pVTZ aug-cc-pVTZ/C TightPNO
%maxcore 2000
%pal
nprocs 6
end

* xyz 0 1
H :       -3.443235     6.434413    -0.504000 
O :       -3.271685     7.084807    -1.230295 
H :       -3.161553     7.963534    -0.826568 
H :       -3.164809     4.919460     1.110722 
O :       -3.919989     5.319764     0.633197 
H :       -4.366159     5.812195     1.362342 
H :       -0.682080     6.306713     5.076776 
O :       -1.295406     6.880480     5.606853 
H :       -1.275444     7.764121     5.165067 
H :       -1.795517     9.694788    -0.741253 
O :       -2.614221     9.521136    -0.208755 
H :       -3.175160     10.293579    -0.322272 
H :       -2.306709     8.721835     1.321014 
O :       -2.167145     8.083444     2.050273 
H :       -1.370696     7.570353     1.808332 
H :       -4.391280     6.394408     3.573568 
O :       -4.543337     6.835331     2.712800 
H :       -3.679109     7.260003     2.521458 
H :       -1.772171     8.975016     3.511879 
O :       -1.523132     9.283759     4.411862 
H :       -2.373779     9.382569     4.871546 
H :       -3.782438     5.305952     5.851479 
O :       -3.790202     6.088514     5.266701 
H :       -2.829598     6.345314     5.302956 
H :       -4.178585     9.037329     6.694452 
O :       -4.085999     8.842011     5.757539 
H :       -4.148955     7.864689     5.702885 
O         -5.148706     9.668114     2.922701 
H         -4.961285     9.791795     3.860486 
H         -5.216163     8.702068     2.854049 
*

