!XTB2 verytightopt copt
%pal
nprocs 28
end
%geom
MaxIter 500
end
*xyzfile 0 1 cluster_opt.xyz 

