%nosave
%nproc=4
%mem=1gb
%chk=input
#P B97D3/aug-cc-pvtz

 Title

0 1
N     10.244161    -1.193383     3.344100
H     9.988578    -0.307271     2.914808
H     10.280122    -1.879214     2.594291
H     11.185347    -1.095888     3.711321

