H 51   N 1   O 24
  1.000000000
    8.819923     0.000000     0.000000
    0.000000     7.222763     0.000000
    0.000000     0.000000     25.000000
H   N   O
51    1    24
Cartesian
3.32678229      1.70989857     5.29721357  #H
3.27348047      6.44978591     4.66385630  #H
4.04836677      5.22169231     4.07985241  #H
2.51698814      1.32967627     4.01981606  #H
1.86770521      4.93865443     3.70555220  #H
0.28445902      1.60390887     3.59654512  #H
1.09563757      2.87861677     3.16877265  #H
1.08728395      4.93519447     2.33381306  #H
1.08118594      1.31695288     1.50581145  #H
1.07343491      6.46596361     0.64785623  #H
1.86789140      5.17768319     0.21307048  #H
0.29084326      1.29995311     0.14343731  #H
4.08016072      4.91456426     -0.15469539  #H
2.50269100      1.56246181     -0.21825605  #H
3.30032059      2.84835709     -0.65417582  #H
3.29894441      4.92508521     -1.52175587  #H
3.30310281      1.29178200     -2.33091623  #H
3.30403775      6.49621486     -3.18566735  #H
4.10362851      5.21385943     -3.63609140  #H
2.52645311      1.26499026     -3.71177093  #H
1.95287262      4.98355703     -4.02124739  #H
0.37220822      1.51352266     -4.09798548  #H
1.16878698      2.74534561     -4.60230986  #H
1.17377461      5.11980331     -5.35646160  #H
3.29678023      3.93306297     5.95326847  #H
2.61095082      3.05171902     7.13986115  #H
4.22550074      3.11578438     7.00765284  #H
7.61671424      1.50526018     5.31799500  #H
7.61874440      6.36018250     4.60616946  #H
8.42507091      5.13193005     4.11844605  #H
6.82226052      1.35950194     3.99231712  #H
6.26502201      4.88574301     3.71228107  #H
4.67265349      1.57271931     3.64580178  #H
5.46590571      2.86498137     3.18871662  #H
5.49074943      4.91543945     2.33034888  #H
5.47660949      1.30699188     1.52915010  #H
5.48328030      6.46107094     0.65565970  #H
6.28003212      5.17682017     0.21131074  #H
4.69853108      1.29884815     0.15913465  #H
8.49036109      4.91539657     -0.15456136  #H
6.90648153      1.56423052     -0.20447454  #H
7.70164766      2.84896540     -0.65003517  #H
7.70959348      4.92466880     -1.52229170  #H
7.70292045      1.29128771     -2.32689287  #H
7.71189323      6.49622075     -3.18399774  #H
8.51332662      5.21510441     -3.63543700  #H
6.93404596      1.26500287     -3.71216656  #H
6.36281669      4.98301164     -4.02201687  #H
4.78390547      1.51289219     -4.10557862  #H
5.58100011      2.74496168     -4.60816454  #H
5.58408352      5.12134299     -5.35713629  #H
3.36980584      3.05733941     6.47085578  #N
3.24129697      5.47299320     4.58863492  #O
3.31470883      1.06309678     4.53553005  #O
1.06267214      4.57651734     3.25410734  #O
1.10382333      1.88582616     3.13430554  #O
1.05066194      5.47671112     0.68362892  #O
1.10911904      0.95696594     0.58554902  #O
3.26374495      4.57251273     -0.60082667  #O
3.32450447      1.86021797     -0.68252370  #O
3.28325568      5.49639926     -3.17159337  #O
3.34123089      0.92415890     -3.24589460  #O
1.13949829      4.66627716     -4.50793076  #O
1.19555593      1.77325678     -4.56852050  #O
7.60452881      5.38612551     4.59759556  #O
7.64121784      1.04141297     4.47526217  #O
5.44448016      4.55900999     3.25049783  #O
5.49412769      1.87105690     3.17058106  #O
5.46243089      5.47182362     0.68392137  #O
5.51362797      0.95508956     0.60701507  #O
7.67434792      4.57267646     -0.60106484  #O
7.72318906      1.86074487     -0.67760862  #O
7.69246361      5.49637828     -3.17099311  #O
7.74637239      0.92434162     -3.24173725  #O
5.54998994      4.66587713     -4.50962890  #O
5.60765243      1.77282908     -4.57545223  #O
     
     
     
