!QM/XTB2 B97-3c tightopt
!NumFreq
%pal
nprocs 24
end
%qmmm
QMAtoms {438 439 440 501 502 503 } end 
ActiveAtoms {438 439 440 501 502 503 } end 
ExtendActiveRegion no
end
%geom
MaxIter 500
end
*xyzfile 0 1 cluster_inp.xyz 

