!QM/XTB2 B97-3c tightopt
!NumFreq
%pal
nprocs 28
end
%qmmm
QMAtoms {438 439 440 501 502 503 600 601 602 603 604 605 } end 
ActiveAtoms {438 439 440 501 502 503 600 601 602 603 604 605 } end 
ExtendActiveRegion no
end
%geom
MaxIter 500
end
*xyzfile 0 1 xtbopt.xyz 

