!B97-3c
!tightOPT tightSCF DEFGRID3 freq 
%pal
nprocs 6
end
*xyz 0 1
C        -0.04954807103842    0.66470660749032   -0.00000000140752
O        -0.03892433353388   -0.74160101890422   -0.00000000564427
H        -1.09534081494088    0.96634015588509    0.00000000216724
H         0.87358678704300   -1.04891923553173    0.00000000731092
H         0.43789671809980    1.07369524281741    0.89173309318696
H         0.43789671437038    1.07369524824312   -0.89173309561333
*
