!B97-3c
!opt freq 
%pal
nprocs 1
end
*xyz 0 1
H        -0.51834056273939   -0.31347347662373   -3.19289586567224
O         0.37659754773774   -0.67801074079271   -3.04506515334007
H         1.04671633295047   -0.05237740129243   -3.36450074679592
*
