%nosave
%nproc=4
%mem=1gb
%chk=input
#P B97D3/aug-cc-pvtz

 Title

0 1
N     1.105108    -10.124564    -1.731351
H     0.393179    -10.003592    -2.447011
H     0.681501    -9.821783    -0.854329
H     1.285222    -11.120882    -1.651326

